
 102   30
  10   10   10   10   10   10   10   10   10   10   10   10   10   10   10   10   10   10   10   10   10   10   10   10   10   10   10   10   10   10

   0   0   0   0   0   0   0   0   0   0   0   0   0   0   0   0   0   0   0   0   0   0   0   0   0   0   0   0   0   0   0  27 2 3 4 5 6 7 8 9 11 12 13 14 15 16 17 18 19 20 21 22 24 25 26 27 34 39 42 
   9   1   0   0   2   0   0   0   0   1   0   0   0   0   0   0   0   0   0   2   1   0   0   0   0   1   0   1   0   0   0  15 101 76 73 71 70 55 53 47 41 40 36 35 33 30 28 
   6   0   0   0  10   0   0   0   0   5   0   0   0   1   0   0   0   0   0   0   0   0   0   0   3   0   0   0   0   2   0  12 99 98 76 75 74 56 51 44 41 31 28 10 
   4   0   0   0   5   0   0   0   0   0   0   1   0   0   0   0   0   0   2   0   0   0   1   0   0   0   0   0   0   0   0  16 101 76 73 64 60 53 51 50 48 47 44 43 36 35 32 31 
   4   0   1   0   0   1   0   0   0   0   0   5   0   0   0   1   0   0   0   0   0   0   0   0   0   0   0   0   0   0   0  14 101 99 76 73 72 65 45 43 41 40 38 36 33 28 
   7   0   0   0   4   0   0   0   0   0   0   0   0   0   1   0   0   0   0   0   0   0   5   0   0   0   0   0   1   0   0  18 101 98 75 74 73 70 64 63 57 54 53 52 51 50 47 43 35 32 
  10   0   8   0   0   0   0   1   5   0   0   0   0   5   7   0   0   0   0   0   0   0   0   0   0   0   1   5   0   0   0  16 101 99 98 74 72 71 70 65 64 63 57 54 51 50 38 23 
   9   0   0   0   0   0   0   0   0   0   0   0   0   0   0   0   0   0   0   6   0   0   0   0   5   0   0   0   0   0   1  14 99 98 74 73 69 67 60 59 53 47 44 37 31 29 
   2   0   0   0   0   0   0   0   0   0   0   0   0   0   4   0   0   0   0   0   0   2   0   0   0   0   5   0   0   0   0  14 100 75 73 71 69 64 59 56 55 54 50 48 44 35 
  10   0   0   0   0   0   0   0   0   0   0   0   0   8   0   0   0   2   0   0   0   2   0   0   0  10   3   0   0   0   0  14 101 72 71 70 68 64 63 60 59 57 55 52 50 38 
   1   0   0   0   0   0   0   0   0   0   0   0   0   0   0   0   0   0   0   0   8   0   0   1   0   0   0   0   0   0   0  12 99 76 73 71 70 67 65 60 57 54 46 29 
   3   0   0   1   0   0   0   0   0   0   0   0   0   0   0   0   0   0   0   0   0   0   0   5   0   0   0   0   0   0   0  20 101 99 98 97 94 92 87 74 72 69 66 65 63 62 61 60 58 55 53 46 
  10   8   0   0   0   0   0   0   0   7   0   0   0   0   0   0   5   0   0   0   0   0   0   0   0   0   0   0   0   0   0  21 101 100 99 97 96 93 92 88 85 73 72 70 68 63 62 61 60 59 57 55 54 
   1   0   0   6   0   0   0   0   0   0   0   0   0   0   0   0   0   0   0   0   0   0   0   0   0   0   0   0   0   0   0  11 101 99 89 72 69 68 61 59 55 49 28 
   4   0   0   0   0   0   0   0   0   0   0   0   0   0   0   0   0   0   2   0   7   0   0   0   0   0   0   0   6   0   0  16 100 99 98 97 89 86 84 70 69 68 64 62 59 55 54 50 
   8   0   0   0   0   0   0   0   0   0   0   0   2   7   7   0   0   0   0   0   0   0   5   0   0   0   0   0   0   0   0  17 98 97 95 94 92 88 87 69 68 67 63 62 60 58 57 53 51 
   3   0   0   0   0   0   0   0   2   0   0   3   0   0   0   0   0   0   0   0   0   0   4   4   0   0   0   0   0   0   0  14 100 99 94 88 72 68 67 66 64 63 60 59 53 49 
   4   0   0   7   0   0   0   0   0   0   4   0   0   0   0   0   0   0   0   0   0   0   0   0   3   0   0   5   8   0   0  15 100 97 96 93 92 84 73 69 67 63 62 57 56 55 54 
   6   0   0   0   6   0   0   0   0   0   0   0   0   0   0   0   0   0   0   0   0   0   0   0   0   0   0   0   0   0   0  12 99 98 97 92 69 67 62 59 57 55 54 47 
   8   0   7   0   0   0   0   0   0   0   0   0   0   0   0   0   0   7   6   0   0   0   0   0   0   0   0   0   0   0   0  12 101 100 99 98 87 86 73 66 62 53 50 47 
   1   0   5   0   0   0   0   0   0   0   0   0   0   0   0   0   0   0   0   0   0   0   0   0   0   0  10   0   0   0   0  11 98 97 94 93 88 86 85 71 68 55 41 
   6   3   0   0   5   0   0   0   0   0   0   4   0   0   0   0   0   3   0   0   0   0   0   0   0   0   5   0   0   0   0  17 101 98 97 95 93 92 88 85 76 71 70 68 64 63 62 58 57 
   1   0   4   0   0   0   0   0   0   0   0   0   0   0   0   0   0   0   0   0   0   0   0  10   0   0   0   0   0   0   0   9 100 92 91 88 67 66 62 46 43 
   3   0   0   7   0   5   0   0   2   0   0   0   0   0   0   0   0   0   0   0   0   0   0   0   0   0   0   0   0   0   0  13 99 98 97 89 84 83 71 69 66 64 63 62 50 
   3   3   0   0   0   3   0   6   0   7   0   0   0   7   0   9   0   0   0   0   0   0   0   7   0   0   0   0   0   0   0  16 96 95 93 92 91 90 89 88 75 69 68 67 66 63 62 61 
   3   0   8   0   0   0   0   0   0   0   0   6   0   0   0   0   0   0   0   0   0   0  10   0   0   6   0   0   0   6   0  14 100 97 96 95 88 87 84 81 79 68 67 62 58 57 
   5   0   0   0   0   7   0   0  10   0   0   0   0   0   0   0   0   0   0   0   0   0   0   0   0   0   0   0   0   0   0  13 99 97 95 93 84 82 79 75 70 69 67 57 56 
   3   0   6   5   0   0   0   0   0   0   0   0   0   0   5   0   0   0   0   0   0   0   0   0   0   0   0   0   0   0   0   8 90 86 84 83 64 62 54 50 
   3   0   0   0   0   0   0   0   0   0   0   0   0   0   0   0   0   0   0   5   0   0   0   0   0   0   0   0   0   0   0  15 101 97 95 94 93 92 89 88 87 85 79 68 62 61 58 
  10   0   0   0   0   0   0   0   0   2   0   0   7   0   0   0   0   0   7   0   7   0   0   0   7   0   0   0   0   0   0  14 98 97 96 95 94 92 91 88 84 80 79 67 62 57 
   9   7   0   0   0   0   0   0   0   0   0   4   0   0  10   0   0   0   0   0   0   0   0   0   5   0   0   0   4   0   0  12 97 95 92 88 85 84 81 70 63 62 58 57 
   2   6   0   0   0   0   0   0   0   0   0   0   0   0   0   8   0   0   0   0   0   0   0   0   0   0   0   0   0   5   0  19 100 96 95 94 93 90 89 88 86 84 83 82 81 80 79 78 77 71 67 
   1   0   0   0   0   0   0   0   0   7   0   0   0   0   0   0   0   0   0   0   0   0   0   0   0   0   0   0   0   0   0  15 100 94 93 92 89 88 87 84 83 79 77 75 74 69 59 
  10   0   0   0   6   0   2   0   0   9   0   0   0   0   0   0   0   0   0   3   0   0   0   0   0   0   0   0   0   0   5  13 92 91 88 87 84 81 80 72 70 68 67 62 57 
   9   6   0   3   0   9   0   0   0   0   0   9   0   0   0   0   0   5   0   0   0   0   0   0  10   0   0   0   7   0   3  12 99 97 94 92 90 87 86 68 65 62 61 58 
   3   0   0   0   0   0   0   0  10   0   0   5   0   0   0   0   0   0   0   0   0   0   0   0   0   5   0   0   0   0   0  10 97 96 93 90 85 80 68 63 61 54 
   7   0   0   0   0   0   0   0   0   0   0   0   6   0   0   0   0   0   0   0   0   0   0   0   0   0   9   7   0   0   0  13 100 96 94 93 91 89 87 85 84 72 66 63 55 
   8   0   0   5   0   6   0   0   0   0   0   0   0   0   0   0   0   0   0   0   0   0   0   5  10   0   0   0   0  10   4  10 100 97 95 92 90 87 66 62 61 58 
   6   0   0   0   0   4   0   0   0   0   2   0   0   0   0   0   0   0   0   0   5   8   0   0   0   0   0   0   0   0   0  11 98 95 94 92 86 84 83 82 67 66 53 
  10   0   0   0   0   0   0   0   0   0   0   9   0   0  10   0   0   0   0   0   0   0   0   0   0   0   0   0   0   0   0  13 98 94 93 89 87 84 83 82 81 77 74 67 63 
  10   0   0   0   0   9   7   0   0   0   0   0   0   0   5   0   0   6   0   0   0   2   0   0   0   0   0   0   0   0   0  11 96 92 91 87 83 78 77 69 66 64 60 
   9   0   0   0   0   0   0   0   0   0   0   7   0   0   0   0   0   0   0   0   0   0   0   0   0   0   0   0   0   0   6  10 99 98 93 92 87 86 85 81 66 56 
   5   0   0   0   7   0   0   0   0   0   0   0   0   0   0   0   0   8   0   0   0   0   0   0  10   0   0   0   0   0   0   8 93 90 87 86 84 69 68 55 
   9   0   0   0   0   0   0   0   0   0   0   8   0   0   0   0   0   0   0   0   0   0   0   2   0   0   6   0   0   0   0  12 94 93 92 87 86 85 82 81 79 78 70 65 
  10   0   0   0   0   0   0   0   0   0   0   0   0   0   0   0   0   0   0   0   0  10   0   0   0   0   3   0   0   0   7  11 94 93 92 91 88 85 82 81 78 77 63 
   6   0   0   0   0   0   6   0   0   0   0   0   0   0   7   6   0   0   0   6   6   0   0  10   0   0   0   0   0   0   0   8 96 89 85 84 81 79 68 59 
   8   0   0   7   9   0   0   0   5   0   0   0   0   0   0   0   0   3   0   0   0   0   3   0   0   0   0   0   0   0   0   7 90 85 84 82 81 79 56 
   4   0   0   0   0   0   0   0   0   0   0   0   0   0   0   0   0   0   0   0   0   0   0   0   0   0   0   0   0   0   0  12 98 97 95 91 89 88 84 82 80 79 78 77 
   1   0   0   0   0   0   0   0   0   0   0   0   0   4   6   0   0   0   7   0   0   7   0   0   0   0   0   0   0   0   0  11 97 96 95 92 91 90 87 85 82 80 79 
   9   0   0   0   0   7   0   0   0   0   0   0   0   0   0   0   0   9   0   0   0   0   0   0   0   0   0   0   0   0   0   8 96 93 92 91 88 82 77 67 
   2   0   0   0   0   0   0   0   0   0   0   0   0   0   0   0   0   0   0   0   0   6   5   0   0   3   0   0   0   0   0   8 93 86 82 81 80 78 77 66 
   1   0   7   0   0   0   0   0   0   7   0   0   0   8   0   0   0   0   0   0   0   0   9   0   0   0   0   7   0   0   0   7 94 87 84 81 78 69 67 
   7   0   0   0   4   0   0   0   0   8   0   0   0   0   0   7   0   0   0   0   0   0   7   0   2   0   0   0   0   0   0   7 96 93 89 85 79 78 77 
   5   0   0   0   0   0   4   0   0   0   0   0   0   0   0   0   0   0   0  10   0   0   0   0   0   0   0   0   0   0   0   6 94 91 87 78 77 66 
   6   0   0   0   0   0   0   0   0   0   0   7   8   6   0   0   4   0   0   0   0   0   0   0   0   0   0   0   3   0   0   6 95 82 81 79 78 77 
   3   0   0   0   0   0   0  10   0   0   9   0   9   0   3   5   0   0   0   0   0   0   0   0   0   0   0   0   0   0   0   6 94 88 83 80 78 77 
   8   0   0   0   0   0   0   6   0   0   0   0   0   0   0   0   0   0   0   0   0   0   0   0   0   6   0   0   0   0   0   5 90 89 86 83 78 
   6   0   0   5   0   0   0   0   0   0   0   0   0   0   0   7   0   0   8   0   0   0   0   0   0   0   0   0   0   0   0   5 91 83 82 80 77 
  10   6   0   0   0   0   0   0   0   0   0   0   0   0   0   0   0   0   0   0   0   0   0   0   0   9   0   0   0   0   0   4 95 90 82 80 
   3   0   0   0   0   0   0   0   0   4   2   0   0   0   0   0   0   0   0   0   0   5   0   0   0   0   0   5   9   0   0   4 90 89 84 81 
   7   0   0   0   0   0  10   0   0   0   0   0   0   0   0   3   0   0   0   0   0   9   0   0   0   0   0   0   0   0   0   3 84 81 78 
   8   0   0   5   0   0   0   0   0   0   0   0   0   0   0   0   0   0   0   0   0   0   0   6   0   0   0   7   0   0   0   2 82 77 
   5   0   8   0   0   0   0   0   0   0   0   0   0   0   0   0   0   0   0   0   0   0   0   0   7   0   0   0   0   0   0   2 86 79 
   5   0   0   0  10   7   0   0   6   0   0   0   0   0   0   0   0   0   0   0   0   0   0   0   0   0   0   0   0   0   4   2 81 80 
   9   7   0   0   0   0   0   0   0   0   0   5   0   0   0   0   0   7   0   0   0   4   0   0   0   0   0   0   0   0   0   2 88 80 
   7   0   0   9   0   0   0   6   0   0   0   0   0   0   0   3   8  10   0   0   8   0   0  10   5   0   0   6   0   0   0   1 79 
  10   0   6   0   0   0   0   4   0   0   0   0   0   0   0   0   0   0   0   0   0   0   0   0   0   0   0   0   0   0   0   1 85 
   1   0   0   8   0   0   0   0  10   0   0   0   4   0   5   0   0   0   0   0   0   7   0   3   0   0   0   0   0   0   4   1 83 
   5   9   0   0   0   0   0   0   0   0   0   0   0   0   0   0   0   0   0   0   0   0   0   8   0   0   0   0   0   0   0   1 80 
   9   0   0   0   0   0   0   9   0   8   0   0   0   0   0   6   6   0   0   0   0   0   8   0   0   0   0   0   0   0   7   1 77 
   7   0   0   0   0   0   0   0   0   9   0   0   0   0   0   0   0   0   0   0   0   0   0   0   0   0   0   6   9  10   0   1 87 
   3   0   0   0   0   0   0   0   0   0   0  10   0   0   0   0   0   0   0   0   0   7   6   0   0   0   0   0   0   0   0   1 77 
   2   0   0   0   0   0   0   0   0   0   0   0   0   0   0   0   0   0   0   0   0   0   0   0   0   0   0   5   0   7   0   1 89 
   4   5   0   0   0   0   0   0   0   7   0   0   0   0   0   0   9   0   0   0   0   0   0   0   0   0   0   5   0   0   0   1 78 
   7   0   0   5   4   0   0   0   0   8   0   6   0   0   0   0   0   0   0   6   0   0   0   0   0   0   0   0   0   0   0   1 81 
   6   0   0   0   0   0   6   8   0   0   0   9   0   0   0   0   0   0   0   0   0   0   0   0   0   0   0   0   0   0   0   1 78 
  10   0   0   8   8   8   0   0   0   0   0   0   0   0   0   0   0   0   0   6   0   0   6   0   8   0   7   0   0   0   0   1 102
   4   0   0  10   0   0   0   0   0   0   0   0   3   0   0   0   3   0   0   0   0   0   0   7   0   9   0   0   7   0   0   1 102
   3   0   0   0   4   0   0   0   6   0   0   0   0   0   0   0   0   0   0  10   0   4   0   0   0   0   0   0   0   0   7   1 102
   6   0   0   0   0   0   0   0   0   0   0   0   0   0   0   0   0   0   6   0   0   0   0   0   0   6   0   0   0   0   0   1 102
  10   0   0   7   0   0   0   0   0   0   9   0   0   0   0   0   0   0   0   0   0   0   6   0   3   0   8   0   0   0   0   1 102
   4   3   0   0   5   0   8   0   0   0   0   0   0   0   0   0   0   0   0   0   0   0   0   0   0   0   0   0   0   0  10   1 102
   4   0   0   0   7   7   0   0   0   0   0   0   0   0   0   6   0   0   6   0   0   0   0   0   0   0   0   0   0   0   0   1 102
   9   0   0   0   0   7   0   0   0   0   0   0   0   0   0   9   0   0   5   0   0   8   0   0   0   0   0   0   0   8   0   1 102
   7   0   0   0   0   0   0   0   2   0   0   0   0   6   0   0   0   0   0   0   0   0   0   0   0   3   0   0   0   0   0   1 102
   7   0   0   0   0   6   0   0   0   0  10   0   6   0   9   0   3   7   0   0   0   0   0   0   0   0   0   0   0   0   0   1 102
  10   9   0   0   0   0   0   0   0   0   0   0  10   0   0   0   0   4  10   0   0   0   0   0   0   0   0   0   6   0   0   1 102
   2   7   0   0   0   0   5   0   0   0   0   0   0   0   0   0   0   0   0   0   6   0   0   0   0   0   0   0   0   4   0   1 102
  10   0   0   0   0   0   0   7   0   0   0   0   0   0   0   0   0   0   0   0   0   0   0   0   0   0   7   0   0   0   0   1 102
   2   0   0   0   0   0   0   0   4   0   0   7   0   0   0  10   0   0   0   0   0   0   0   4   0   0   0   0   0   4   0   1 102
  10   3   0   0   0   0   0   0  10   0   0   0   0   0   0   6   0   6   0   0   0   0   0   0   0   0   0   8   0   0   0   1 102
  10   0   0   0   0   0   0   0   0   0   6   0   0   0   0   0   0   0   0   0   0   0   0   0   0   0   0   7   0   0   0   1 102
   4   0   0   0   0   0   0   0   0   0   0   0   0   0   0   2   0   0   0   0   2   7   0   0   0   0   0   0   0   0   0   1 102
   9   0   0   5   6   0   0   0   0   0   0   0   0   0   0   0   0   0   0   0   0   0   0   0   0   0   0   0   0   0   0   1 102
   4   9   0   5   0   0   0   0   6   1   0   3   5   0   0   0  10   5   0   0   0   0   0   0   0   0   7   0   0   4   0   1 102
   3   0   0   0   0   0   0   4   0   0   0   0   0   0   0   0   0   9   0   0   0   0   7   0   6   8   0   0   0   0   0   1 102
   6   0   0   6   0   0   0   0   0   0   0   0   0   0   0   0   0   0   0   0   0   8   0   7   0   0   0   0   0   0   0   1 102
  10   0   0   0   0   2   0   5   0   0   0   0   0   0   0   8   0   5   7   0   0   0   8   0   0   0   7   0   0   0  10   1 102
  10  10   0   0   0   5   0   0   0   0   0   0   0   0   0   6   0   0   0   0   0   0   0   0   0   0   0   0   0   0   0   1 102
   2   0   0   0   0   0   0   0   6   0   0   0   0   8   5   0   0   0   0   0  10   0   0   0   0   0   0  10   0   0   0   1 102
   1   0   0   0   0   9   0   0   0   0   0   0   0   0   0   0   0   0   0   0   0   0   0   7   0   0   0   0   0   0  10   1 102
   0   0   0   0   0   0   0   0   0   0   0   0   0   0   0   0   0   0   0   0   0   0   0   0   0   0   0   0   0   0   0   0 
